c Si la licorne est mythique, alors elle est immortelle ; 
c si elle nʼest pas mythique, cʼest un mammifère mortel. 
c Si la licorne est un mammifère ou si elle est immortelle, voire les deux, alors elle a une corne. 
c La licorne est magique si elle a une corne.
p cnf 5 7
-1 2 0
1 3 0
1 -2 0
-3 4 0
-2 4 0
-4 5 0
-1 0